12
0 295 352 338 173 309 90 101 481 391 121 290 
295 0 203 119 214 223 442 143 258 383 445 211 
352 203 0 162 341 341 414 448 344 115 424 236 
338 119 162 0 111 129 198 329 89 189 222 355 
173 214 341 111 0 378 496 73 376 458 470 67 
309 223 341 129 378 0 455 284 123 254 479 305 
90 442 414 198 496 455 0 204 187 80 277 324 
101 143 448 329 73 284 204 0 438 77 323 481 
481 258 344 89 376 123 187 438 0 106 197 402 
391 383 115 189 458 254 80 77 106 0 362 400 
121 445 424 222 470 479 277 323 197 362 0 300 
290 211 236 355 67 305 324 481 402 400 300 0 
